
@relation p2

@attribute A1 REAL
@attribute A2 REAL
@attribute Class {0, 1}

@data
0.6197657815952766,0.41920089773002267,0
0.794551511170681,0.4261487873812356,0
0.16356784553191772,0.6147009258342006,0
0.7791991637689029,0.6016264200760235,0
0.7808241479629675,0.5499196760657556,0
0.9471423968700431,0.46411561026871184,0
0.16058684711796534,0.5455487673697114,0
0.23349821820086003,0.9707909562722211,0
0.08711698313761052,0.9290153876292695,0
0.9502343418507166,0.9055480030631051,0
0.22554778587853852,0.45868224895238263,0
0.8501315553346218,0.241187850797285,0
0.3635064972353623,0.7562992439879611,0
0.1392152715759052,0.13784176207174792,0
0.21246082824043433,0.22597651777364014,0
0.12866445896522005,0.24849741040223805,0
0.4324704632933174,0.37765162854688594,0
0.10800557159033553,0.4782519040691464,0
0.9185585592865362,0.8939720095612959,0
0.2952486325272822,0.9738261684378402,0
0.22540908480848387,0.20635156475862682,0
0.2897405034697933,0.40306530851561306,0
0.4080700079033258,0.9962884980882867,0
0.0545011779214396,0.5406681974947936,0
0.2469266014384548,0.25967931315210424,0
0.16429299140945586,0.8908005672825842,0
0.20012395189789656,0.511020423804777,0
0.29942114808925435,0.5127809516467219,0
0.7213023316854523,0.3462923033633154,0
0.7530601736277382,0.616136499891789,0
0.9271596572938721,0.43319317217999453,0
0.04728324801538775,0.9503367891971076,0
0.5056003884315552,0.3774132672245655,0
0.7043853357362663,0.36395816811554904,0
0.9604792840300532,0.9445622362156497,0
0.8349760408899568,0.23682199104279034,0
0.7439041959560515,0.20313336187411402,0
0.2360434447401213,0.8038186741727827,0
0.044642260257722444,0.4403011477600859,0
0.9380281817525238,0.9732998133476473,0
0.7222423121125825,0.3428766546528993,0
0.23198343563756552,0.25229499372578046,0
0.32830985180726524,0.9313268541461525,0
0.07382774655431346,0.5329726146026634,0
0.7093990859336823,0.572589095883259,0
0.9553548021761132,0.8139111820861552,0
0.29355636280108977,0.7995525639153027,0
0.2615020021076634,0.7458741930938838,0
0.3395525471387112,0.4041418981310062,0
0.488614295674102,0.31317005201918136,0
0.42268015750345445,0.41425110964805556,0
0.16200217947514362,0.8416039128821226,0
0.8919747309893241,0.4710067541525892,0
0.7786214740949574,0.49746764731179727,0
0.411311725032797,0.40073216325423744,0
0.28883066853667494,0.3100432607810556,0
0.3463726440546294,0.9160015395300688,0
0.7035174214320106,0.35026190065706875,0
0.09139181284428866,0.8067903904510602,0
0.9814690330920622,0.1990811519229151,0
0.042358603097381264,0.40295516598056713,0
0.23976625328876888,0.1751842024294682,0
0.9652019240895319,0.4193491307478996,0
0.0889082970112901,0.8600197312564811,0
0.20518976305569747,0.5860139517836097,0
0.09285282074733725,0.5865288314141915,0
0.3161752981117819,0.28635744614747927,0
0.6775170000924481,0.5033600561098197,0
0.026087653716180492,0.41469872443011435,0
0.8946829274338635,0.38070440721321297,0
0.26425497237687845,0.2564255849880822,0
0.26334413072526697,0.19563727634173056,0
0.22683873627942575,0.7725770882899388,0
0.4662392802834838,0.47029264000032855,0
0.9795668922188506,0.8839428608763339,0
0.3305028324955078,0.9620355598199881,0
0.7915015201074564,0.6133197471759806,0
0.8612328897339021,0.2937242938735657,0
0.3269405416808149,0.9910590380377172,0
0.7752006202128873,0.2640790204888097,0
0.899224529081477,0.35021993746850255,0
0.6629153649923828,0.5501053486992369,0
0.8253740360096082,0.5361689341022138,0
0.2609499391682927,0.5859032431067297,0
0.4075413877703946,0.9422251928196611,0
0.09407951974426765,0.5599020527409924,0
0.8290133165637533,0.9503710166414219,0
0.6779598771730345,0.47936417482770843,0
0.9030994989851159,0.3526725744153508,0
0.17190792396955556,0.11650898598326309,0
0.1287443860927059,0.6903680190527421,0
0.7340575614634633,0.23980315188146095,0
0.25297086800913093,0.15437215150751127,0
0.6310174573483581,0.4493806954853473,0
0.20111888559219893,0.5793218483856439,0
0.8568781282505398,0.24823737697047255,0
0.609195109253605,0.4085316294715511,0
0.9885891908282994,0.3361549128551683,0
0.2882391705300442,0.6693449385726433,0
0.8513392841067379,0.3707489393208945,0
0.0819997890068147,0.2799578336625683,0
0.07114375616588098,0.2686964205604352,0
0.5401885274935331,0.47188688308812,0
0.2776896009297135,0.3620011995653676,0
0.07824711034546883,0.40111631354790733,0
0.8711899886226516,0.43695167853935624,0
0.3705620608821605,0.9929251473656021,0
0.9920861522992523,0.07650535327342545,0
0.3916622723898714,0.7014312221773481,0
0.0041314912626279066,0.810203605151744,0
0.7989330716068643,0.20062339365903303,0
0.6637019903303498,0.532477653370032,0
0.22551457460193836,0.8345242646049927,0
0.8293260579828499,0.3287706060742922,0
0.08507045450528916,0.5342587636897416,0
0.9725149614927889,0.06352536801017339,0
0.9202972268162738,0.25700426804190657,0
0.2766622527173366,0.2905577666349527,0
0.12957761750971264,0.4327383329967821,0
0.10630543990121788,0.5224996403034706,0
0.4757614942693795,0.9464453126465356,0
0.4295299702216906,0.9004963131237484,0
0.7499865196832219,0.35949333380451587,0
0.515326746775584,0.39301373321447364,0
0.5520573060003114,0.37968436306284115,0
0.405893650281955,0.9600382982361994,0
0.6522549276101178,0.5073772814803947,0
0.7091432774721157,0.46143983058757987,0
0.6998064979688917,0.5757850810171223,0
0.10585321760783306,0.48333356471968925,0
0.769119320469457,0.6069967766120886,0
0.9157317602385652,0.4596415536697944,0
0.3417351209313766,0.7814283795578776,0
0.16297680649451307,0.5433924945669443,0
0.4833280446468645,0.5028014077948106,0
0.9187874639582096,0.15840587566415487,0
0.7114935042140766,0.3822278540159446,0
0.12884341991271164,0.4255751276831816,0
0.1747720906746807,0.611785254010498,0
0.7089988809682815,0.6233595274025782,0
0.49789992249807913,0.4246531727870444,0
0.2758668102081817,0.7221590520144017,0
0.7018117595809276,0.5848537424682931,0
0.5373917203775906,0.3616315199188239,0
0.2827160587131661,0.39660862905809424,0
0.41557928056124116,0.5357030823944825,0
0.47253247025619094,0.41761937239673075,0
0.701733487801901,0.5129301218014144,0
0.883824141057101,0.924891167618747,0
0.8429188663454249,0.913666764296053,0
0.49496685616957325,0.33452991551733724,0
0.8885005733572684,0.9640057803293146,0
0.8166385754623497,0.2682633894077615,0
0.2641299179329365,0.8304643989922438,0
0.1180463120673978,0.4333435517736861,0
0.8101810037090204,0.5905757576800168,0
0.9818409251185801,0.9721571565828122,0
0.9981755854473002,0.2630076428007543,0
0.9292352590246996,0.3598994134883744,0
0.7813712055259382,0.4861060755955592,0
0.25992227333208107,0.3116784879993345,0
0.17471427022481878,0.18394959669781752,0
0.9749855959000756,0.373808670585289,0
0.46431973016255657,0.3173711945910833,0
0.8177451144422268,0.484892170172856,0
0.9961285783609012,0.816791084844794,0
0.0919702088077371,0.6033569505994,0
0.2631614006701949,0.261042771704729,0
0.375421630535103,0.7220452344715689,0
0.31020362098112897,0.4259157290810631,0
0.30462016476385745,0.35684923577969196,0
0.142724182825545,0.20078389017613374,0
0.613064403441977,0.42124528298966335,0
0.2221037855392518,0.45433210651746836,0
0.6432571490225893,0.49987520829871057,0
0.21055095028216697,0.39066952065194993,0
0.19628323449786034,0.4661124752122586,0
0.16259419541409237,0.42866901845071703,0
0.1501103007492468,0.1700457759495605,0
0.9467671851817847,0.9045716705051644,0
0.9510023174108356,0.1876302726960638,0
0.4377858258417626,0.7248213461085571,0
0.9730705574983716,0.3400138495538314,0
0.27947488989600966,0.8259940299802591,0
0.906404213794656,0.20301585524656807,0
0.8169738313822875,0.38755809412069064,0
0.42536244751695396,0.47416265141426495,0
0.8659708160897002,0.38610336414584445,0
0.749242348174713,0.6690426180858655,0
0.9084922508210446,0.9100365811075337,0
0.056177154249859695,0.8904006224717247,0
0.9955419930084725,0.3207097921758586,0
0.1849879162836775,0.230467962995638,0
0.10515018467559134,0.8878194280091671,0
0.9006607046282157,0.21364224534332865,0
0.2601636140287479,0.43773180669557776,0
0.06981018199878963,0.9329737804941388,0
0.24709488247361355,0.4999202215966839,0
0.4699395851221545,0.8725308046695557,0
0.1347114271194324,0.4670530489374026,0
0.811660729830217,0.692871908732187,0
0.9534205572933332,0.008963091687024916,0
0.28210019615978843,0.474840295629804,0
0.7800698161455175,0.3244058302922188,0
0.4585505182577204,0.780426599659515,0
0.8554825806139544,0.2766055790162665,0
0.378568966681885,0.7447221567429229,0
0.47200234380447026,0.9030605981309223,0
0.8957984933039236,0.3256184776127842,0
0.12739327483996477,0.20514019339516165,0
0.31837269061082163,0.4460451878306162,0
0.9229321633754073,0.2962092965571246,0
0.8525945737977001,0.1810287067934223,0
0.20489667059293715,0.6533154558910043,0
0.2769267259110252,0.185786975307895,0
0.12318829407609067,0.3819553725725908,0
0.07801074003334996,0.26546303018005424,0
0.2915851601780539,0.7700221729311612,0
0.2963540151928381,0.468359092841398,0
0.5013453037533211,0.6036480288687579,0
0.8652259738613388,0.34525077012616745,0
0.2792498388824223,0.1931750125505607,0
0.14529126856739139,0.8338057767584627,0
0.30578496240335173,0.3162815115778209,0
0.15767949537121984,0.802344160926319,0
0.046078882982939495,0.9789912194677678,0
0.8121539989525709,0.4619155842226781,0
0.20229599333299209,0.8228107515566232,0
0.24034753389250008,0.17521992123874286,0
0.2268298172736184,0.6351480118995738,0
0.24661623385097198,0.4708134477271494,0
0.22224326019652008,0.6506586154402514,0
0.4530238322792265,0.8443501604745871,0
0.8123474755997968,0.6911795681345663,0
0.07465938416914453,0.9121394099906034,0
0.8960757965058219,0.05696603932841715,0
0.9927003618907271,0.9717606413549936,0
0.7408108500160812,0.2566578042584168,0
0.8501124269460969,0.15927874501478512,0
0.3912154456872685,0.7739865807903662,0
0.3179367678921404,0.8840556768588338,0
0.7495689403178402,0.5225776074188044,0
0.79778606640136,0.48667516980829206,0
0.7700762902843725,0.22579090289968273,0
0.15052164841579374,0.3945388977553732,0
0.9970590884592697,0.08808224659295516,0
0.1999272943475856,0.2879602652598635,0
0.842765850537854,0.24187806146293422,0
0.8591987302975007,0.2559504357379816,0
0.7022226174250308,0.36485708907201797,0
0.20205341341112526,0.5105965927925871,0
0.3452669046147251,0.8659156961568434,0
0.9994235437662529,0.9826770174169521,0
0.82411409721265,0.6599420270413728,0
0.26914454662835585,0.34312112979144205,0
0.4935675876000837,0.33439959488284143,0
0.04510955666639804,0.5757917203752437,0
0.20801948748746657,0.252986554467885,0
0.43542330764058657,0.502325614901631,0
0.422017620997327,0.9988254294993323,0
0.7270730963645051,0.2995781979523712,0
0.3599740869043194,0.9878104063333351,0
0.8892321253576279,0.33176060461208834,0
0.8880792611642632,0.1932049525426831,0
0.28840120791638457,0.24704483216390627,0
0.1372884770042575,0.14621785185633496,0
0.9991557449610244,0.17880967969346806,0
0.4464546005470884,0.4698685467593766,0
0.8386614708708487,0.9743175631999503,0
0.2689823811214356,0.9672830976480218,0
0.668957799003529,0.5004920197219803,0
0.3765694668850357,0.8690818611884537,0
0.1994318528077772,0.5991690760052973,0
0.5141409712037779,0.557524560003802,0
0.916999146949214,0.4976294951653166,0
0.4142114417138202,0.4803786448304378,0
0.2756066397591501,0.29403303400403724,0
0.2616471153992137,0.42346941948650907,0
0.12620923554180474,0.19599304063295186,0
0.2566458011687227,0.3695217724564722,0
0.1987499822174441,0.37148196023793856,0
0.33600527809094405,0.2917778983903464,0
0.9954168961248239,0.928028722464531,0
0.6503359322202904,0.4444262684781891,0
0.22446748211732248,0.944381303949997,0
0.4803198524425568,0.3801528691449474,0
0.7789482106587448,0.5484588935158817,0
0.19607974536160766,0.35305379723932206,0
0.7974017526663948,0.5873651941218645,0
0.13114536826968248,0.19977196161474375,0
0.9071203796284057,0.015216276354601321,0
0.9996824301592947,0.3232808773414636,0
0.17504680516551263,0.24849046897637594,0
0.8707358058983458,0.6116072125070787,0
0.83039702696718,0.547881378718852,0
0.4481572689614287,0.8706098640931801,0
0.19808495548619587,0.15323947450862685,0
0.9123478826703004,0.013851992608203467,0
0.20706502765296486,0.30773408692705595,0
0.09915402131414885,0.25999262457593386,0
0.9923491525468894,0.7949248404957885,0
0.4139496613843662,0.44898931451262203,0
0.09958369935937073,0.9088063907054129,0
0.7197111466316998,0.6131080860175139,0
0.7894446957203799,0.4695505618084552,0
0.03316869920807275,0.46271449969396516,0
0.09040198146812584,0.36291526468691016,0
0.3543076643934189,0.8091849977885754,0
0.07102347187713243,0.3664266217300828,0
0.1945586263927097,0.20273469286599533,0
0.03938292433189439,0.9241580676478942,0
0.4044050736470387,0.8706395302979881,0
0.41920080038548024,0.3784126714699666,0
0.8676688035381291,0.07846344021069473,0
0.44762644506197014,0.7420084813305162,0
0.4499155993853753,0.4959902822577483,0
0.8924242422802167,0.9538290757995603,0
0.4246044669572606,0.8241458770153058,0
0.9868939661192418,0.9479776194663379,0
0.1543206231287404,0.4232729865726249,0
0.19712843710340633,0.1534591055895984,0
0.5193382803531978,0.5615583982437816,0
0.015397121093672639,0.9378493761726487,0
0.16747452805711494,0.2608388284078651,0
0.2899106111885621,0.8104904965858951,0
0.24942999452988357,0.7175847088550698,0
0.8412838078197964,0.4635573656106242,0
0.3545306877284964,0.9258879685568973,0
0.24131628885072287,0.7322532328008214,0
0.2581244509911558,0.9859164941264245,0
0.22544435420699394,0.20042678115622892,0
0.2034185610136262,0.5997437254387327,0
0.11627174450974187,0.3640522070348544,0
0.015586004352783123,0.9138505656753093,0
0.14874120485769293,0.7637167753715337,0
0.413856004713549,0.7685876018769379,0
0.9566489260069161,0.4632312523494758,0
0.34358188375166443,0.34991224402638843,0
0.981709747087157,0.20468328646217304,0
0.21915699730470328,0.23610569698274508,0
0.1767817257652471,0.868993334576669,0
0.1861547714729237,0.23582821963201384,0
0.9491741645688849,0.3282189219746502,0
0.4062540153076387,0.44401761923838556,0
0.9566468611843482,0.968212745039432,0
0.42586280810619304,0.890901525631605,0
0.2272357306631101,0.2782482283900586,0
0.9557490087655135,0.10717783504801548,0
0.29837496063512625,0.9795880066335505,0
0.15738014048438664,0.16522762267135738,0
0.7206190435603659,0.46504977487867327,0
0.5710392682172114,0.3983076159744653,0
0.4340415237746321,0.7226553018227058,0
0.23562058749340142,0.4130912811852384,0
0.912398415750947,0.24930401776693667,0
0.22426820866434716,0.43278255334774574,0
0.2173358034909073,0.6043098409420371,0
0.832926189108425,0.970745445277375,0
0.1785261000509436,0.14236380265700244,0
0.18422453542741746,0.16433128202835234,0
0.8607465522030262,0.24823276221355017,0
0.4094439665239762,0.39875727399089356,0
0.3155031974803135,0.9108700247838557,0
0.2602995273831299,0.9133015392747702,0
0.44751519074395174,0.9865546956136217,0
0.10439598403534611,0.5590824813854709,0
0.2131069273185563,0.3764960895239312,0
0.7803766027905629,0.18076924746088707,0
0.15939743505521176,0.3763199013819798,0
0.9071013593507914,0.3539258898687693,0
0.8712495770170391,0.3378276546523561,0
0.781868117253873,0.5556601204340611,0
0.4488116094220288,0.8065690402165341,0
0.39204665750497647,0.38748497147377736,0
0.9517747038018686,0.8287921303447873,0
0.16134326081204442,0.5695349233046597,0
0.06522299081456395,0.9791494925178805,0
0.9865161947429173,0.10796474667472689,0
0.9576148989082992,0.17690242003599854,0
0.8006260775278153,0.48474725516988726,0
0.44363066694306097,0.7443464864261816,0
0.1635189373582685,0.4539192766365745,0
0.8226852533744919,0.23026070474289084,0
0.13746262801646636,0.38967882231924833,0
0.22205659821017454,0.41493432040921163,0
0.676446446472137,0.4964889694207213,0
0.4744827185845888,0.4956795941363755,0
0.9231348811013439,0.4186398138555395,0
0.9646090334107348,0.9138174527809784,0
0.20539569818029346,0.3145496488624291,0
0.2908010923034283,0.3333678026267448,0
0.9831367349669042,0.8316844422048083,0
0.6274806163732198,0.418143512579946,0
0.22271448427148388,0.18777653969424224,0
0.3543199613035679,0.7889550309585607,0
0.08084023035114274,0.3519285971714978,0
0.27873976097263375,0.21655833822048942,0
0.9293004275662751,0.39711077484497814,0
0.8195264291229537,0.5037558646129255,0
0.16524149280563782,0.23500448716747846,0
0.04817153023004961,0.5396976258237821,0
0.08706786531878274,0.3559824212650361,0
0.07617940964184855,0.8128324128664262,0
0.4877772828748196,0.5602522382590482,0
0.1125796478852027,0.38437888729897285,0
0.9966852968996142,0.3548119267741968,0
0.7043216682107829,0.464465255980252,0
0.15620399587383071,0.37553293003843546,0
0.5520958402030235,0.4256575288494,0
0.3776191362681314,0.7445542544571664,0
0.15140938050142372,0.3497635122108673,0
0.7828520630976956,0.37719358180772333,0
0.6723587776040696,0.4478991122921724,0
0.0369551911224375,0.3823528156155679,0
0.756973873876463,0.605699964920626,0
0.8867024506570665,0.29014407634372785,0
0.37653851082509515,0.9778935819781382,0
0.5106111565935025,0.3327369064313185,0
0.4910715073104762,0.44114947151722894,0
0.15847893731522444,0.662836777973424,0
0.9915067265641164,0.21742965381475787,0
0.9984139800367796,0.01566858936245541,0
0.31355950502588714,0.33236627238452865,0
0.8070976420949738,0.668363960402155,0
0.9047667548720745,0.9325905158667371,0
0.8720371006166189,0.5853872271716681,0
0.6094023853708394,0.4614254734237814,0
0.2661870284295723,0.26745150799851836,0
0.8688879978667858,0.2961348253189108,0
0.3116737764096287,0.2812572444748952,0
0.4824193235929496,0.4158597070369904,0
0.8214137174871257,0.2949260216193722,0
0.9431270042241436,0.44946483018140504,0
0.13079076224381214,0.36686770886425346,0
0.9274506296392435,0.15543868529484695,0
0.7425740497644826,0.46656115728865255,0
0.3181833754247305,0.934693443806671,0
0.8659283438036051,0.3431358533671309,0
0.9558235581652736,0.3826613013386416,0
0.3273285156803497,0.4592747973566432,0
0.919361911479096,0.17669732927133452,0
0.1451327409056682,0.9647301506134747,0
0.28131044310405706,0.8309197098208065,0
0.7037735001159717,0.5339856471118937,0
0.8416089130183567,0.5791995138021853,0
0.2275862968885446,0.3613141609672217,0
0.8910324903700915,0.089461591958651,0
0.27016941864325184,0.5577572583515559,0
0.7594319605768572,0.40117556757852046,0
0.27180745746360957,0.7576504982279795,0
0.48016659991186106,0.9796200893278959,0
0.45771203133610194,0.4424010676831913,0
0.31204919052629054,0.940457888130157,0
0.6604707391165853,0.49659081265843696,0
0.6371503311519571,0.44283353552121185,0
0.9696652825161192,0.1525333894652129,0
0.08582509522410187,0.5296966871243493,0
0.9495876359536014,0.8193418456579251,0
0.17313892482975957,0.8359973538432494,0
0.7209271639331937,0.3015786136240233,0
0.10971694278944188,0.5938864715118757,0
0.9713900202768193,0.1864279793644843,0
0.0365450313315806,0.56039164269225,0
0.08602048560486775,0.2435458171655347,0
0.7558668246211382,0.535860428057621,0
0.7340213187516892,0.4645887410113205,0
0.06331562260382528,0.4599952492958046,0
0.649465421824434,0.4633208206155278,0
0.1303382590101949,0.3909954045587498,0
0.718413136900033,0.4268546730944601,0
0.14285771230081568,0.2504122779212987,0
0.03301667832753297,0.40676670684231564,0
0.351623463855267,0.3868534930196259,0
0.37970081514076814,0.6857792670469544,0
0.17003390509267757,0.5579634452147711,0
0.7655400637120191,0.5282033806005914,0
0.9224036476377556,0.9549886979247886,0
0.33400634658579287,0.357050932182169,0
0.9799652754278231,0.07683807876604787,0
0.9716159425548361,0.05923657422955275,0
0.930209839447395,0.9555034252579131,0
0.36210147920523916,0.7446080013416725,0
0.3903020621283172,0.7911433644640901,0
0.15281743379291934,0.5907964280603657,0
0.9517198073675587,0.40711386390733284,0
0.9484579640459444,0.20527859124614334,0
0.0637914475300746,0.44782264732254784,0
0.9298228879424812,0.8331166453732854,0
0.4382112846794467,0.3480425355687784,0
0.23378973118189994,0.30739648137364495,0
0.25266856448402486,0.4863971452679332,0
0.9142128234557833,0.2498622803625622,0
0.5911082677311945,0.40013304579851516,0
0.5335563185284327,0.3441517721138453,0
0.1605822860681031,0.9615081086108935,0
0.1887613389860351,0.8922726265529272,0
0.7273060685726266,0.6028795120527891,0
0.312506113013594,0.2599581725126483,0
0.3791595989634644,0.876827721451944,0
0.12389037257371005,0.20204669636739758,0
0.3214423000257798,0.4755974858525869,0
0.8593796760212602,0.09884520014930664,0
0.49178421110636195,0.55490931188992,0
0.3916759603342951,0.4486891199607598,0
0.7730362629874052,0.587011008693028,0
0.549586944867485,0.46141130752547743,0
0.4148896383424471,0.591254323657385,0
0.9375516194005822,0.33316017727347547,0
0.47322984551640845,0.42184917022218005,0
0.8326135558272209,0.5016742421726574,0
0.10263697209586575,0.3896608022529974,0
0.9921537059523672,0.29251882766617443,0
0.24388433008029975,0.9349652435247566,0
0.14961132744661976,0.858837921319823,0
0.43167650527462964,0.7967550044464722,0
0.2536793877345479,0.5865073854127814,0
0.17136227268581816,0.8624414410155209,0
0.2132811764887781,0.5068396785793079,0
0.39744466617952046,0.36332338923981633,0
0.7985713667974352,0.39006258626760604,0
0.7680206884291672,0.5669517854901822,0
0.41922443608126725,0.4665551265590724,0
0.2024043438565567,0.11390718433748348,0
0.3993992836341932,0.6675902880401273,0
0.05814598827830497,0.44310211977411984,0
0.9728487782322507,0.8985725790663212,0
0.9483865620941959,0.894738375193688,0
0.04529052172085957,0.9531987550806109,0
0.49777687839791707,0.48653160679776397,0
0.4302774405431873,0.49215377569127927,0
0.41623486886742156,0.9211577220675438,0
0.25489677711078207,0.9392156600864235,0
0.8712430848361064,0.047330025796780695,0
0.9674230226952799,0.9112755992812985,0
0.21913202262315923,0.8071853438464022,0
0.8511271007493181,0.9147809111714115,0
0.9618437364771517,0.20563248940660594,0
0.9921669978088027,0.23442506924383422,0
0.16204376105957685,0.8587499970200259,0
0.42026830556337835,0.6165157290791474,0
0.16089628822807878,0.38117077965393065,0
0.5205227793356746,0.39828573162568404,0
0.777022481663731,0.38052085378907374,0
0.07835542011104757,0.8492431969281862,0
0.33666031271075814,0.8315593821477665,0
0.0823934155233561,0.8691067920662418,0
0.859969605250378,0.11618121073881915,0
0.31025447309894805,0.99292438513318,0
0.720935560506981,0.6131577770722403,0
0.9297319883849794,0.3112490161906726,0
0.964632174482336,0.11604063301951761,0
0.8408915169341113,0.45584233564019094,0
0.047107084464686144,0.3944342115030983,0
0.7782386312355891,0.35157882541199725,0
0.8432338407014818,0.42210465774760375,0
0.8886691069531053,0.44330517213266485,0
0.30071208585925313,0.8450174183637814,0
0.16995006776884525,0.9599256674441367,0
0.9517566335074387,0.20199245137497812,0
0.14428848184560716,0.4206029304297303,0
0.9410218004778683,0.3173951693517405,0
0.22253830196561186,0.931844984657364,0
0.7713545456374635,0.22510238731108645,0
0.8340803560340856,0.37115638378626736,0
0.22766055631016724,0.23744545224550684,0
0.11310502543727241,0.42811740525501296,0
0.12157862082137916,0.6059359969363001,0
0.4088723507397134,0.5147752958303926,0
0.7860545892859696,0.6116928700010152,0
0.9625644411169262,0.15879115112145392,0
0.9862019845890329,0.15461473876928256,0
0.2549867521773679,0.36205607668971485,0
0.4028768198374858,0.7779805849028534,0
0.770126677078868,0.6285863961590398,0
0.8868221397067243,0.20705032692771064,0
0.19099457307296464,0.2905189789300593,0
0.2408615982694302,0.7442375548214694,0
0.7679244887137495,0.3711690944788,0
0.2636192575254075,0.4073895798589897,0
0.7970051117149053,0.3853534879773114,0
0.4318935297133182,0.45728790669551034,0
0.06297440347160999,0.5813442437068425,0
0.4831254856184165,0.3754421904775559,0
0.1910342834553047,0.9209130500079048,0
0.11792327354126408,0.6596297149865982,0
0.12079612635805415,0.28586186058236407,0
0.724143478756617,0.6056188361921544,0
0.270705348541293,0.8313286585074245,0
0.42837203138513735,0.779534494894759,0
0.23288631319897724,0.9639763569059857,0
0.9164122349200161,0.5026651960491294,0
0.947333900426422,0.45265279150397775,0
0.36295879361146555,0.9514534422316742,0
0.4188400623382442,0.5461324707492556,0
0.9552316848829887,0.10862329910078172,0
0.8665212788176999,0.16955171887960707,0
0.8350528950577077,0.2458352425891378,0
0.4491485730494478,0.36418055251791304,0
0.1621025769504404,0.9125344953820609,0
0.4612697544004921,0.5286197771676895,0
0.8885304841095157,0.3934061609981926,0
0.10077339114331596,0.36437064439225686,0
0.4066987659348372,0.5061197435943583,0
0.2107432586873913,0.15405863823585686,0
0.0569853007730049,0.41488441698052547,0
0.13241904723708675,0.17985551039793413,0
0.5138595782511889,0.35032897422256226,0
0.531222798223109,0.42502159060371303,0
0.6251719122601509,0.46292158029999986,0
0.9022697749750147,0.5176388274657981,0
0.42236577737380143,0.5366063421655948,0
0.9456430517410108,0.4861291513506951,0
0.9377368985582154,0.15522369416708182,0
0.5724278297671606,0.40084959698239975,0
0.10628883851446169,0.6487644073719288,0
0.8729007063800411,0.9417458498714832,0
0.4491357896896315,0.3106603036637293,0
0.872726853720914,0.4266520722029117,0
0.46199663047024087,0.8293737724389677,0
0.9981915061616354,0.2246337743050456,0
0.7678179294568155,0.5732954059686673,0
0.7031824672031348,0.40384948989451963,0
0.21977384956361734,0.30083659616841896,0
0.9029860792158542,0.8612977698196126,0
0.12834097316782267,0.8460312998450065,0
0.43943065308838225,0.4868612216357975,0
0.3310005588535163,0.9032845815020101,0
0.2177764900547332,0.24948058744748858,0
0.46133429204882237,0.3023459890542821,0
0.9872287242297263,0.3606657726336143,0
0.19189571350153778,0.9633341243895038,0
0.9087019973086217,0.2780918705246942,0
0.7624478070638696,0.35866171331220553,0
0.12182229368576547,0.48356223412869914,0
0.8688365602966132,0.8975160828057204,0
0.16409109481774864,0.3568991468109265,0
0.8612370365469748,0.3368090543286105,0
0.256884890238785,0.9183611380263456,0
0.1087987253241336,0.8279612445210395,0
0.9330157742702807,0.4193524882275822,0
0.0815155790642238,0.2809711744429696,0
0.12019637432400243,0.21961150227376536,0
0.01367973534382183,0.47771203820224484,0
0.42294084200503623,0.7926583886198155,0
0.2731368370530257,0.5663832657966175,0
0.1858874399023953,0.3849376531972968,0
0.9321480616422022,0.3325276319031155,0
0.24138629832987257,0.26046044364922105,0
0.8748028505404098,0.2591063009633059,0
0.46388932794942317,0.919053905402091,0
0.4255737282672586,0.8869615443167045,0
0.13604359058714832,0.8031623961043662,0
0.13233413403780525,0.7928905433254677,0
0.28178157259801906,0.19316476042750597,0
0.16843784993539213,0.877285927428434,0
0.720412203169494,0.30870178803993864,0
0.13313650542739253,0.785266881273982,0
0.9317937395960298,0.9578242865914632,0
0.8449694414249751,0.16299807834009472,0
0.8219932451489533,0.30786555842485563,0
0.9728561539674181,0.847822811876705,0
0.1853282290145407,0.1949710116025557,0
0.9523203232895495,0.41288321403148454,0
0.9352856257991676,0.9815407010920223,0
0.8576610203730891,0.9706223865985615,0
0.6955196531753598,0.6160972552941717,0
0.9807406153247563,0.8431461539722795,0
0.11391125166139837,0.9077618050019229,0
0.8726487277275504,0.5144482260515271,0
0.6351158168206567,0.4316970244990368,0
0.4361026094823902,0.39090563011699664,0
0.8946463798088028,0.8863853621967084,0
0.7093565578333292,0.6423466070761282,0
0.8548454362719272,0.6012803335890933,0
0.03060524679301635,0.8714205050814804,0
0.7304905989314944,0.24232990789476272,0
0.1486498721546763,0.2674286921908904,0
0.13587093701088293,0.5825468502318426,0
0.05778637267826803,0.41093199936073754,0
0.2625360422006312,0.5205466963964351,0
0.100554036794956,0.8407697054094604,0
0.9018467273778122,0.5491718665649808,0
0.8514828698075846,0.2346962647633002,0
0.4897644968170155,0.3551501465543222,0
0.23858118026328212,0.4002496353012853,0
0.4195954886378521,0.4429034804329681,0
0.26636177047084975,0.9251201035123472,0
0.7158816965432433,0.504577539940685,0
0.3965196842417398,0.9817503317602125,0
0.8294932288780211,0.2670172675523278,0
0.1580876137739573,0.22675111182152574,0
0.9272612920540841,0.4194230763431216,0
0.22063551994019015,0.5859958938945833,0
0.4422296075126986,0.40405053760751897,0
0.8939653458776605,0.3333449523184163,0
0.8640059087112043,0.23384230220083413,0
0.15287181840469544,0.9268994727894811,0
0.22830931238252816,0.19832479845366846,0
0.07694697787707605,0.5146190115528609,0
0.39399854311522153,0.6609382359691988,0
0.1158075550090999,0.908017605834124,0
0.19056950358178637,0.36383884568799074,0
0.3746531774660887,0.8589143296406826,0
0.7602500756949606,0.6652137899655386,0
0.6901078100153635,0.5880631850632541,0
0.07528221680388159,0.91746285303732,0
0.5458311412413633,0.5043095468621865,0
0.839278960382048,0.6592144716846358,0
0.1254077338279389,0.4611002027718434,0
0.17546190046051213,0.4365942520918331,0
0.8185743488306971,0.2571703866228203,0
0.08732237617278304,0.5644982467073131,0
0.48994628257456063,0.3102284608347623,0
0.659965875879099,0.49263637013337247,0
0.1132730410934435,0.9309711146093166,0
0.8487105646279915,0.15684649911762027,0
0.9914374081989804,0.8799799261661015,0
0.8610198545050034,0.9322660002552018,0
0.3935729380143239,0.9935171360615705,0
0.48424790848246735,0.9141161877491191,0
0.8175255199141442,0.23643344408753286,0
0.8528631277525905,0.17004893390189013,0
0.7615192624342553,0.4593363030498443,0
0.8717017881247684,0.9777704081785956,0
0.4757207811582622,0.4225489832015966,0
0.2633157005889225,0.46025171039626156,0
0.4150767871908003,0.8223759525759577,0
0.07752945000601308,0.9783914818219848,0
0.808476300051867,0.2604686095468144,0
0.24533551282513177,0.24856152668564746,0
0.8365251749881261,0.4713027660713598,0
0.4849654529405485,0.3658504774855901,0
0.09768934604925972,0.5114265036409655,0
0.9638665903611147,0.9761132334446345,0
0.11441194963973467,0.2637555340710368,0
0.16755704680102523,0.6418950213254487,0
0.9999646820410171,0.3435383866686528,0
0.22610992004336772,0.9778786118688148,0
0.23194606708820764,0.9877077407926431,0
0.7363551531788342,0.5174027884888527,0
0.4875626559931161,0.9549461086513004,0
0.9026284786550934,0.22873823482657385,0
0.20082725721789896,0.5049300577853559,0
0.9338996193743273,0.40001845933155356,0
0.2898679083035913,0.38020225991303247,0
0.5501828818089336,0.39320205397126473,0
0.2958170736713729,0.9668084573972343,0
0.5413647649712815,0.3831624474446299,0
0.9135028390688535,0.19120744393208333,0
0.26483497443712223,0.4718675439360094,0
0.03242587905905148,0.9405706466178111,0
0.866149858834178,0.3527872386254357,0
0.19533548658936117,0.9207191295360424,0
0.13333049370296868,0.811704136131401,0
0.9513810179974911,0.4302889369510696,0
0.2939530787900815,0.3972737220281579,0
0.09845198997716109,0.5073177999048494,0
0.3159159439577577,0.9746728380750587,0
0.6981588471333008,0.6199569679757624,0
0.9881983993789367,0.11305757518137394,0
0.8194672665564076,0.5636106520756132,0
0.29196634344192085,0.48561222879145505,0
0.7656101458634781,0.2764489773872647,0
0.4450463546125982,0.4339658127124184,0
0.06225574371014919,0.5176591123056936,0
0.7528226791671906,0.20766165291522776,0
0.016183713472832206,0.9618699978476809,0
0.6976270763007849,0.5284812589361904,0
0.12328710286692446,0.17648550020953901,0
0.3843887203260673,0.7067665582775823,0
0.16165512887765243,0.29475236743865174,0
0.2077390054598821,0.3446120349220776,0
0.41720845319308275,0.7027947274397197,0
0.20250441994020774,0.84566842420437,0
0.3313439555651918,0.3243371145757158,0
0.38292330099752125,0.8607221640189742,0
0.27543388252404255,0.5703811125550615,0
0.15092959616282375,0.9140348821402612,0
0.11093860501043196,0.9799393516874434,0
0.6436312427048428,0.5203588410729347,0
0.2346099319393552,0.8482500255407486,0
0.017155053951324883,0.9984712054796748,0
0.8097744370209867,0.4254646382300724,0
0.10137722679447403,0.8540663739522257,0
0.10585853413832724,0.8384478764751816,0
0.14807654478500631,0.6009719522559815,0
0.7400876817062755,0.30665708361435295,0
0.8270091704609739,0.9994551132198403,0
0.3052097464092748,0.9594137826346223,0
0.7139520720127052,0.3995471106014653,0
0.7973603454715257,0.2488531066290851,0
0.35873211423773566,0.9098036575475996,0
0.9935007495847482,0.19299382345923077,0
0.2445491987102758,0.7902621323369308,0
0.30517006429292515,0.30120103240450047,0
0.37060498717021517,0.9117432400457469,0
0.4066487769464773,0.6701442683620074,0
0.7301738243684943,0.5773377343815843,0
0.4343967427626143,0.9705707586954915,0
0.17039918784627517,0.9317519399163708,0
0.20529763013087998,0.5332817631381261,0
0.4632989989495746,0.9533731457853867,0
0.22335739391909137,0.17776799476943816,0
0.517576456638813,0.3763578601389015,0
0.31589596254717,0.7683037778526032,0
0.022341149359209056,0.9574006911380882,0
0.11729138024049257,0.7733794665323305,0
0.7359867684645931,0.4629801923259077,0
0.07462696921425127,0.5759964025184121,0
0.26831465936122856,0.4737114931476848,0
0.9115694347247596,0.8309957960378968,0
0.1453987234208064,0.31837271564441927,0
0.6922436396544501,0.36822696905818786,0
0.24524857019181734,0.434859732259535,0
0.23188058441139903,0.2849302682179926,0
0.5122081171981507,0.32386864809993154,0
0.9227838853056358,0.24064155076122307,0
0.911825945270107,0.9715283673003852,0
0.9760292971847294,0.4050054684171016,0
0.06763932555990737,0.9701580033689143,0
0.10013990127518724,0.2160980567416788,0
0.751410726686968,0.3315722522376311,0
0.8376246536125183,0.973581144292964,0
0.4696016958016853,0.9215005698372527,0
0.8510691602002705,0.5140268986737198,0
0.7873473970323702,0.545479465895165,0
0.18180330626210206,0.35054831665894615,0
0.9183741282648574,0.22135838715921008,0
0.1841340355637059,0.1979945629019063,0
0.7320354901584708,0.25626524788852423,0
0.30347058346191425,0.7956203367947713,0
0.05125837522890808,0.43014688059649175,0
0.9460729847728253,0.9535387434341983,0
0.15728819468482702,0.16841647044074703,0
0.7018796017248382,0.45805294468442526,0
0.33385126020171485,0.39692774978135337,0
0.5551385392321776,0.4623323584867549,0
0.1811477142115112,0.20495347319862112,0
0.18447961838337557,0.1939215070228707,0
0.9293226603938298,0.10287078262588112,0
0.15697686634411312,0.5111707495948082,0
0.3010674520967451,0.7245141399563295,0
0.0654910197552131,0.458407719778513,0
0.7451743308960458,0.20970805412542204,0
0.8411330060319846,0.44175536826783934,0
0.2078489887059063,0.4436691176046629,0
0.7902536471690594,0.6434040825171833,0
0.8406925552262767,0.15963706474174677,0
0.8529565410968682,0.3727816933530763,0
0.45685802300583256,0.8121893883364979,0
0.40269050359134095,0.9263016612458888,0
0.850626034276473,0.937942854356856,0
0.8288972984013231,0.6724854238587077,0
0.09876612646879157,0.8809482673659479,0
0.23519671598149028,0.3515433554804339,0
0.7885249678787317,0.48759058400340016,0
0.1601733920401187,0.26525092341142587,0
0.2002156138264961,0.43382334429911285,0
0.8044399247064832,0.584769615678692,0
0.9632625405679461,0.05032995608633062,0
0.3031455524687896,0.9628357711180678,0
0.9952213486126812,0.9787313869087202,0
0.3384484437445028,0.8224461892981325,0
0.901008748098671,0.36132254631201743,0
0.2644817894051663,0.7311381774349047,0
0.8273046680863543,0.2642659058528751,0
0.9701005673745329,0.35861491710679716,0
0.04153000729504153,0.542756239150364,0
0.4521713405639538,0.9241832083770576,0
0.09483557239495433,0.304582503944415,0
0.7338502699719653,0.4646955635823299,0
0.1432491006270894,0.47149116162313187,0
0.4261236120945535,0.4997775513833018,0
0.09594175396781901,0.28627114745784277,0
0.3119342569604998,0.9417947641287654,0
0.5355375501727473,0.4240551853055383,0
0.6171184733714431,0.4404449429334196,0
0.9175653474149238,0.8394700606002369,0
0.7050418644418809,0.4903755315435032,0
0.6965231484221385,0.3889781093786373,0
0.39774823427447203,0.4198046287818923,0
0.28489013126560014,0.7166846698920587,0
0.3956530630506214,0.9875043487588264,0
0.44801829260174963,0.8849905706259538,0
0.2635249188261495,0.1589033965000476,0
0.8834778504177768,0.5128275419973779,0
0.43055902409457303,0.7698951082921026,0
0.26596220031448226,0.382481019494772,0
0.1890413502525956,0.5397603113518744,0
0.16669874917460703,0.14523475505725592,0
0.15178637083779345,0.40711118993601125,0
0.621686874259364,0.42653928972659694,0
0.7832553567191466,0.6369095207242501,0
0.725009947747151,0.4614318419037702,0
0.3961010336548203,0.6755325911923251,0
0.0929939518516465,0.23554794388538502,0
0.11821509900074945,0.24877414137832776,0
0.09492816705322427,0.48847947995791696,0
0.8115581742979375,0.22791064557190988,0
0.0763315677438613,0.8706256226670994,0
0.9150086795405723,0.9515391362694697,0
0.20275176273199202,0.24579910977442754,0
0.4479598425626723,0.4328154333128298,0
0.41102682296365456,0.7685190387795447,0
0.3946527840115651,0.8777397733601527,0
0.2607581753570771,0.8972439348239847,0
0.9373972044039381,0.1633876258395096,0
0.4059432454753411,0.7786143750430224,0
0.8992481263837285,0.8978878968700166,0
0.20047054916005647,0.45172785978304175,0
0.8486518870647035,0.1863346153084292,0
0.24293925432112629,0.5233039467173181,0
0.702242816571751,0.36460113600070754,0
0.07626108662495656,0.9231782603998087,0
0.8671724554751448,0.5930354618791774,0
0.6815909758534925,0.4299560201875854,0
0.6098198604194869,0.43331513309001646,0
0.16937205964104263,0.4498555825615923,0
0.4272118927642139,0.6306805262214588,0
0.23922788549781748,0.3370117109198949,0
0.4133856352579016,0.9140848119714324,0
0.9790554217349473,0.13635778755366879,0
0.41539752370905836,0.3464948491723646,0
0.8505651286177693,0.5025185864499387,0
0.3197452208686118,0.7637056364567012,0
0.07725223352453303,0.5003200553169772,0
0.952710573110034,0.18187151353421227,0
0.16705168357793931,0.45899097104650144,0
0.3506080882070012,0.8886246580882274,0
0.3125318914165459,0.8933207992571995,0
0.056150572027686696,0.8682889999775103,0
0.9862766223230605,0.9859586208270888,0
0.332529008713235,0.8690411357180704,0
0.21905817931329563,0.45329263897118455,0
0.9655597397456194,0.31889602186251,0
0.2716843096819729,0.8711596155991631,0
0.4009546112657687,0.7478134787331404,0
0.15635335616752366,0.24224230442033923,0
0.7012087399831463,0.43849332747754055,0
0.2330305361902213,0.2499602009027565,0
0.9448215672160588,0.32890030644676904,0
0.18766766239273425,0.8512122603115412,0
0.21070937416982727,0.5445848455774357,0
0.33009161208647064,0.7547306367310639,0
0.8511845174641056,0.18556815782699887,0
0.2029324681985284,0.4056398709057353,0
0.02164192892789596,0.4609694378494582,0
0.893008683598916,0.3653868440353961,0
0.7589914130423618,0.61729515432452,0
0.4281283560196363,0.3960758477113968,0
0.7858221978940535,0.3662862860497995,0
0.2228204601890219,0.9658765333678898,0
0.7494027054604131,0.26663343187813304,0
0.28801364654115835,0.8849066664615938,0
0.3777568521989858,0.7400075675885799,0
0.1968469682047408,0.35217364854633504,0
0.9699182210340271,0.026426982611025274,0
0.32120212314483965,0.2472077016602654,0
0.7416178162552419,0.456704507778407,0
0.7292549316786886,0.5065165593814638,0
0.3952658505701785,0.9542109761821801,0
0.7753729136018627,0.418447170708237,0
0.9015309448311245,0.47338261474096055,0
0.766681361432865,0.4926896048947865,0
0.09869890971943585,0.600944521463205,0
0.3609596175080122,0.9459281753531698,0
0.08352684213889094,0.9542373141209874,0
0.48215248087503115,0.38609140525576646,0
0.8984797361124208,0.014983249967298162,0
0.3517225966567289,0.414310552531269,0
0.13877156401098112,0.20366416913862806,0
0.8205143952018041,0.5128069454930783,0
0.2787397953990669,0.40805325361982947,0
0.9407740033477028,0.9236659377080266,0
0.2547316180988778,0.19677623103462005,0
0.7424915230333707,0.23904465260940222,0
0.8959372109433087,0.39783196138721033,0
0.36360296100481304,0.9898780660776999,0
0.16807136020673297,0.3121316875045341,0
0.22417503817822582,0.8219766996567061,0
0.06029861648385115,0.9932466524733131,0
0.619872015760404,0.46869764384275636,0
0.8343417316479049,0.2574256735695152,0
0.9376883121780177,0.839294043774765,0
0.9486966205551081,0.34740970202327903,0
0.8346037127223529,0.9537637965904886,0
0.9619854933373889,0.9271276695955964,0
0.15843711364033142,0.9799051409803855,0
0.9341328445907484,0.4095409157515054,0
0.9156097077720068,0.8441238662690369,0
0.2984672743228314,0.9801800468665379,0
0.06000872476049046,0.4567896890413331,0
0.7427572344985746,0.5740239148811276,0
0.4677367798002503,0.520170997398551,0
0.04657814260109194,0.9063257031488682,0
0.2690505743524573,0.9161677263375179,0
0.08649190182143862,0.4042223261825958,0
0.13252486407600805,0.37188684361623514,0
0.380004522590615,0.977582247456745,0
0.7603223668061146,0.5411601664697411,0
0.703414230235851,0.05142871464795151,1
0.551495562457379,0.9264540793557056,1
0.6357430891691028,0.3628157217795266,1
0.7386886158710728,0.7816620136191251,1
0.6957525354259906,0.8705274453049731,1
0.43967264964931496,0.2888199651947544,1
0.24371217957597535,0.01812921810362611,1
0.6046119164497608,0.12050727526191674,1
0.8584459811137387,0.031068580563420767,1
0.9414966804666115,0.5431589056128427,1
0.591903116987819,0.8171394654718499,1
0.035044489371258036,0.7246519452773876,1
0.343373812216346,0.2330659598576328,1
0.629555447534026,0.6849514169091446,1
0.7020864712801922,0.6832160531479958,1
0.32937240281203295,0.009743159601918072,1
0.920642308373684,0.7739032532892682,1
0.7903524802901059,0.9254919839829173,1
0.9377845434551172,0.7597198435244534,1
0.6019383970479614,0.48626265554293013,1
0.013951698347456465,0.3104297075990964,1
0.5278440451928464,0.08907781048349073,1
0.5341004827908326,0.8543177238708941,1
0.3230090430443351,0.1718641802726547,1
0.21766030445158746,0.6820815874924143,1
0.9841997733415927,0.7413924015366542,1
0.7205255021015448,0.782600392482446,1
0.4753996569542306,0.8071112728895198,1
0.45607865532151015,0.5862332404234488,1
0.5737603390464633,0.8808409633296291,1
0.5685740892245159,0.6661532712592368,1
0.8883450648684756,0.7937956233658469,1
0.36863385252079506,0.48007388180439603,1
0.8286119807693039,0.1106334486236249,1
0.750208196943181,0.1255298784705723,1
0.5049564936348078,0.9079880301707463,1
0.019437402292589168,0.7173732145034619,1
0.308571427288756,0.6074734057662146,1
0.33201295219415816,0.5998616670063239,1
0.18800676357792556,0.01832968315246708,1
0.8215296162695125,0.050059751499714866,1
0.008692923541790298,0.18009793992157075,1
0.6086500606278747,0.5875386666488095,1
0.8555809208526256,0.7087736213566346,1
0.6593112707311747,0.8457370668505413,1
0.49538337651791986,0.1663038434354035,1
0.4285759549276379,0.20046509736810092,1
0.35264706023607517,0.11857189094193699,1
0.6464365899222719,0.11768112128022878,1
0.0175196561337726,0.5831321609454175,1
0.9996853866112511,0.7801281894517322,1
0.6776548536279937,0.17144320836977567,1
0.5433680405930518,0.26362453874167,1
0.7578298920044367,0.7182099687509766,1
0.4542428912249524,0.24749700416549136,1
0.36841038481834754,0.03377461268600168,1
0.9975705560160641,0.4732801971375845,1
0.6855344870596424,0.9087427382218559,1
0.020366150881545697,0.7411074912933686,1
0.8331091800989732,0.07005608532375274,1
0.0006840079063983318,0.6441189959936257,1
0.6648763605404028,0.6760474221416801,1
0.3430676786951644,0.7277160042059946,1
0.7058501426057018,0.06559366981654169,1
0.5243604061828419,0.055895203404061955,1
0.6624677699440654,0.760856717217284,1
0.8478690846687945,0.7921810204467727,1
0.3660485821048809,0.41574783313382013,1
0.6576386814445899,0.6482572713210792,1
0.6772216864087639,0.6600486284078984,1
0.4854916245057235,0.835328983577959,1
0.6289054325891825,0.5932166112334354,1
0.6307224880893968,0.6820304452002807,1
0.8207749916025894,0.9164453255222147,1
0.5257267056067757,0.01826589229698017,1
0.7026870226527316,0.27745921515484884,1
0.8726603906509134,0.7189079959345521,1
0.5504214627804043,0.009664437095018963,1
0.5388795364376908,0.5415363282255956,1
0.05264912603833172,0.020134803693027004,1
0.5278582477570563,0.9660531199281949,1
0.1879775127525103,0.07496526779505741,1
0.5012476084193492,0.20310825908868946,1
0.06214087481436936,0.6314682156479938,1
0.4570488592307981,0.24841848697701796,1
0.8256957926610609,0.7257531706778185,1
0.5507974460853102,0.5788416012622533,1
0.16969073187796224,0.09887846719865545,1
0.24237689501003734,0.030014603116640948,1
0.6123233310776052,0.23884811268182016,1
0.37595405093084566,0.6641989162767568,1
0.9934461003113737,0.572668926224929,1
0.2049417147772331,0.7509400781702616,1
0.5592486707922326,0.9955178334259606,1
0.7866734407606858,0.834920807457791,1
0.5952763999750676,0.6274433430363819,1
0.5516146799409,0.9461911613609564,1
0.4709026611331424,0.22439813765571348,1
0.5393492612858403,0.8216500110317646,1
0.20187900075704202,0.09921095786305989,1
0.5056228954800918,0.20680758032148472,1
0.5579026233576978,0.9737103058545479,1
0.7640948381184434,0.10160095983924777,1
0.4141111579725072,0.007225601349595934,1
0.506981879785239,0.8965772464501335,1
0.300864368416202,0.17176084233901456,1
0.04367617598949769,0.7232487946969027,1
0.7684362126776718,0.9060452730335855,1
0.9952971357257069,0.5794617927013598,1
0.47183235680157454,0.0324047660375999,1
0.004677475369336492,0.257367625488918,1
0.5863329094126222,0.29940610781206745,1
0.7944956524999889,0.8824931449579178,1
0.5680568354754587,0.04228934309904353,1
0.8184738147457533,0.9500145235472862,1
0.5585917543217682,0.1739534108162244,1
0.4292816853267777,0.2592010484773358,1
0.5152490924255488,0.30378692616023006,1
0.9495444802046819,0.7753761946768556,1
0.4577357395357706,0.2743814647265679,1
0.8524406613233243,0.8923656057659927,1
0.37427398742727724,0.043527533227826654,1
0.838157354764727,0.7631331254379234,1
0.665501266177288,0.8810215415169996,1
0.636318338606111,0.36165673178679913,1
0.7095093481004824,0.7394357547811937,1
0.4630351752105981,0.23716867731626434,1
0.1984288498346941,0.7799664325156113,1
0.5409382211040171,0.020721996325098968,1
0.5137965138136028,0.7525235355095822,1
0.3408838584006455,0.27469793221166905,1
0.787898485060769,0.9852525922889328,1
0.24065164511184522,0.719026975715272,1
0.35785017240535655,0.3373626947132675,1
0.6948756048780799,0.039104098477540816,1
0.998859682947116,0.619866368996693,1
0.5352736698568021,0.062210807172519256,1
0.4750180033199424,0.17632401424229172,1
0.050098947209737954,0.7128561457085771,1
0.9935643805021946,0.7475185153886893,1
0.4437842521642362,0.2810359360200616,1
0.6577791396640857,0.8906757411444073,1
0.5839720772720213,0.15833981020244403,1
0.6523290164146722,0.9548268947686716,1
0.04212507592656323,0.6681177058703366,1
0.7158416249896606,0.9056167072193547,1
0.9736779859440299,0.7098407650493016,1
0.502178282616802,0.7419259068477191,1
0.0033945699400776963,0.30970526617090244,1
0.5930816175433512,0.1039723041380185,1
0.029293401919677553,0.22653311823592304,1
0.5549251195091409,0.7888440702756293,1
0.8194760641690491,0.06678574992860209,1
0.8148566369527852,0.7706893438576595,1
0.474072234920617,0.13942902475525965,1
0.3410495669751088,0.2580236468540653,1
0.3673526044680354,0.18707603650660265,1
0.24505024985912616,0.6491040497954687,1
0.4975207230902582,0.02616350998706196,1
0.35272155252248016,0.13456805601369914,1
0.8000309315238564,0.7876807983374124,1
0.5833140337668101,0.4649326304563425,1
0.6490874552186267,0.6924623132757982,1
0.5485478873115462,0.21405776218664085,1
0.7948577144597806,0.8137705765221525,1
0.6256061759168937,0.8262613130454224,1
0.7419871274859456,0.8357206107672978,1
0.8863917813069117,0.7470348515055311,1
0.9074658308776832,0.6962924268054906,1
0.8366840504381464,0.13090091137946192,1
0.8837267646468003,0.6353562881513676,1
0.29186017907634165,0.6145838532344569,1
0.7684309485559798,0.8322934854225055,1
0.5366817211914118,0.9635806444404771,1
0.6073303341939921,0.9847202630602842,1
0.6448357514950961,0.058559172190422504,1
0.6427182164164127,0.011997935856529307,1
0.02025222371395141,0.6464627213391055,1
0.950582394477317,0.6070677360083477,1
0.6078608787501305,0.9580167414887674,1
0.568575063509905,0.255946493326321,1
0.027483811774846045,0.34578083837788076,1
0.6889154136257482,0.8583410480859678,1
0.1516690288617134,0.003959755787442676,1
0.9651828543481396,0.7296569274852855,1
0.6243178925015157,0.7519961810451762,1
0.29100587923008636,0.6280834763059199,1
0.9488781726819596,0.6548423140953878,1
0.5873093272292842,0.8977072185215695,1
0.04095614934768921,0.06519614039297927,1
0.752651884987093,0.9829139356116616,1
0.4365616558042992,0.11608561167907694,1
0.5056488986108011,0.11176166260106535,1
0.5403812793749703,0.6492757567570882,1
0.7721615410273507,0.007903267900431277,1
0.6191796014449401,0.6469196967771003,1
0.6636831000608044,0.9538579397827543,1
0.8528782361489644,0.09791712868821145,1
0.8161392929565785,0.10132469142917433,1
0.15892112907274292,0.050907905351798566,1
0.0440092294740807,0.22283307234383842,1
0.7800553272146012,0.7797828973893245,1
0.5189826320485227,0.8239491997532638,1
0.5425480486317937,0.8286654323813253,1
0.3153004168607927,0.5320020918410888,1
0.5423206728011779,0.911705519557789,1
0.4700194862950271,0.12641089164904018,1
0.09413163709490824,0.7503007830625282,1
0.5547610780321949,0.181433076351319,1
0.2400946329718201,0.6616953276002425,1
0.9118722195483798,0.7671228015486019,1
0.6140985167918365,0.13569487859413665,1
0.3741554094058315,0.6966802113814644,1
0.806158738613714,0.7859184173488541,1
0.6816526907217539,0.6665820115861889,1
0.04479265829380663,0.3216166438366965,1
0.6881341301574843,0.3606002914537153,1
0.5844509008720874,0.598241431032946,1
0.3093739635721623,0.5161824083856433,1
0.6073227972198565,0.0027862785218513153,1
0.407077280780486,0.33674706440211977,1
0.6767244481544954,0.18796218894114047,1
0.39784665541959974,0.14529168893870237,1
0.38291890411207896,0.48324902219671395,1
0.6817281211308128,0.7632208645124811,1
0.26870662492173913,0.6562870167769772,1
0.6280429860407367,0.5378392327616563,1
0.943558731127103,0.5585980795775881,1
0.7611469653444212,0.7009833562398715,1
0.33781164891965343,0.4900218128124785,1
0.6023859264000554,0.9396876397669383,1
0.6325822586045401,0.5218636428885308,1
0.5457145883152372,0.06309480273606027,1
0.2219893176818677,0.7260741850742713,1
0.7642443399530332,0.9031270794385792,1
0.6183835224454909,0.7664461388663355,1
0.49698607848293286,0.9792972451972873,1
0.6076860435359815,0.6635805105908862,1
0.8851811901344915,0.6193403370589066,1
0.46781467244100994,0.7286753677042588,1
0.681456681303266,0.18301427260739034,1
0.3297767989163698,0.02692270603228586,1
0.03880677192925752,0.29582151627380193,1
0.8763312063284606,0.6274642379989478,1
0.9795722213847399,0.5726854372330193,1
0.842019137713152,0.7305083072313361,1
0.5840292441848263,0.1713429312775384,1
0.3401397437651237,0.6714067223096426,1
0.6320272279119127,0.9485189142033214,1
0.6054888755205258,0.5396079406052022,1
0.529774479141222,0.8084969903534233,1
0.9799171091341687,0.4928551504311345,1
0.6258023480429393,0.7926204794662365,1
0.656546358704936,0.18085661624960125,1
0.9358065078301141,0.5353067032418026,1
0.7528877522579748,0.7487894234846789,1
0.6860273360060877,0.7674367390010449,1
0.3531697962441651,0.13213420633193207,1
0.012814898642188544,0.20452693440786263,1
0.6706488851900814,0.9388764276839442,1
0.35545830468818207,0.03313521707850575,1
0.3139762529623872,0.6571757317515611,1
0.6347795337773123,0.7727059164771573,1
0.4806710188747879,0.14330423921878233,1
0.561107769084968,0.9698736826856997,1
0.6008725250780506,0.0009435063732302629,1
0.944679602938168,0.7709813182119345,1
0.3181583158829159,0.1877431080768729,1
0.8439953022801818,0.6995391558655409,1
0.07701031799597102,0.6809218183839268,1
0.9849714684757357,0.58644256338616,1
0.6916040982909252,0.7096547937448701,1
0.21683101877015432,0.004399135020448419,1
0.8764672269973072,0.6285176391383407,1
0.13724844364516264,0.719371132904662,1
0.17118551950204264,0.7698387960902972,1
0.6593837169801473,0.9133874394856041,1
0.08962716886223598,0.6934900025379359,1
0.6380555155502624,0.6431618691733727,1
0.6555989525305286,0.609551705350321,1
0.10644394322375827,0.6836839283960966,1
0.2785153772351583,0.07785182909174304,1
0.5867073438913403,0.0875495780652169,1
0.37665453328309495,0.6560369223590165,1
0.640595184053921,0.3360472435883274,1
0.5328723845335663,0.000814676803520098,1
0.654012467260909,0.231367182606113,1
0.03271067304244457,0.8542803044927618,1
0.007171452534504796,0.1355850509055715,1
0.6959419711471645,0.1136356145681473,1
0.7566802108545819,0.8809230357714958,1
0.7342910734382548,0.13810580304131514,1
0.7792200910872318,0.7654838095754869,1
0.37144861525108663,0.41156164148562413,1
0.3456568266126431,0.2902348176720809,1
0.5854276057590714,0.8797187128716353,1
0.17553148384875317,0.055652151984069254,1
0.04457847350401556,0.7827337956757585,1
0.1503895029715917,0.12316879539914449,1
0.7533652961609443,0.07338914403163777,1
0.1486437608953668,0.015012406041962856,1
0.32994563459534054,0.6121941713679234,1
0.5972936686620378,0.567296865380129,1
0.1010014453620075,0.1083618677130781,1
0.03875236192751452,0.059817692178364856,1
0.6798534520168162,0.8049703934909104,1
0.7099700668329525,0.6754622410740305,1
0.8601445466913803,0.7894233235880902,1
0.015580475615257439,0.7657312712696034,1
0.7440617923273483,0.735889748820688,1
0.5723511723280634,0.6497950575259615,1
0.30969746791041397,0.6377839626951668,1
0.4073662654675123,0.1723047931110283,1
0.4753406622049846,0.13216653855176919,1
0.8172390292319338,0.7758450607238984,1
0.8456177461445799,0.8284520501154373,1
0.4138596221873668,0.08415233682424073,1
0.17781747021332894,0.7073422319130495,1
0.525259237490366,0.12113677855742055,1
0.3313624853818905,0.1753628863961425,1
0.6340780146289259,0.7449826797289936,1
0.3858671489922335,0.45278272660719066,1
0.848076020916733,0.7642769968340695,1
0.6283019730391315,0.821983230092913,1
0.463237371891001,0.7537175227536194,1
0.6053387277201738,0.9999324383051351,1
0.04115596281485523,0.30085246065942317,1
0.11813828382665725,0.06092442903336981,1
0.33636878827978745,0.47928502440566134,1
0.09705496909318889,0.09638455590816064,1
0.824527206491386,0.8897255049140971,1
0.8954877282292084,0.7278572280846384,1
0.8354971569273897,0.7130419380606885,1
0.5079344776569134,0.7459132895277829,1
0.6808865175223197,0.05127966167592557,1
0.612004161732807,0.34565278956047785,1
0.1495493419757674,0.024250738438792663,1
0.32718027368070635,0.6202050255503422,1
0.9467847448274472,0.7860092474976103,1
0.6885710207399911,0.7793730690192999,1
0.048695886637097896,0.3081204128469571,1
0.4125283740524397,0.10367190232780232,1
0.24781034957635317,0.08918158674315024,1
0.7509138318016826,0.9118054005899436,1
0.7093543361834141,0.9067245652718462,1
0.35174281943812646,0.6072680136591521,1
0.21710698821646535,0.7580838461387943,1
0.01901899619669911,0.329647277087734,1
0.6248004326135485,0.7098116098974943,1
0.8306275064058078,0.744770802620089,1
0.6488194195787113,0.32552031172984297,1
0.516155671573636,0.8685796771215103,1
0.6828339136154058,0.6271594206894061,1
0.825153035764662,0.09060308792184224,1
0.523666392284405,0.5978764188473388,1
0.760687363494035,0.1682388825999126,1
0.6215267700056085,0.908499569054472,1
0.691610505172271,0.9488475825021716,1
0.5904365764316236,0.595789608861298,1
0.6529880436123849,0.05192816097535191,1
0.5182523521979796,0.1762938720566789,1
0.5816396148567308,0.45948837194022607,1
0.7360610546697431,0.9528683704094557,1
0.5572821317180409,0.7247168250394881,1
0.5858056778274612,0.5590086994997078,1
0.42129393250882363,0.08158584633060662,1
0.6460889444632997,0.1600469162951269,1
0.3926060817329585,0.55681067256341,1
0.6017231623956787,0.15721303326970248,1
0.10940605766247502,0.046798016575460455,1
0.9873826651697016,0.6925384998093347,1
0.9152524632968917,0.5927518251691495,1
0.045629890293040765,0.7944052809120727,1
0.6522607806931153,0.9847054743208972,1
0.05459047192894917,0.20261183004208516,1
0.6320395007274421,0.7223092036187576,1
0.5500829436135543,0.7929686192751245,1
0.40523042152099975,0.26775743169180777,1
0.5744888861836525,0.6590738968377973,1
0.874739058006155,0.7308400692339014,1
0.9608769462414314,0.5655708712709624,1
0.8238038853082416,0.05540740394127863,1
0.09330092294311376,0.03514643049289712,1
0.0022710778649674968,0.4152236932347887,1
0.16544149276255127,0.06145995524373726,1
0.9049339994402432,0.6026863381677801,1
0.3316292366496212,0.6810344082462367,1
0.3651424947360301,0.4987717435455785,1
0.0186940459800653,0.556591941881225,1
0.3183444430051159,0.16986176995837854,1
0.48538695166071755,0.6922139306658386,1
0.018728136575581145,0.0806168787210888,1
0.09641183308243773,0.18573336420632625,1
0.8352251043581075,0.8114398992711715,1
0.9326348441491077,0.57068193453469,1
0.5292107851638745,0.8638574610896267,1
0.6402255247961167,0.7130598628219723,1
0.8062263898394729,0.04476236744151618,1
0.6810142217844675,0.2320716558600282,1
0.39075881342438024,0.1790793591424784,1
0.5237273693316188,0.6784164757504112,1
0.5730656557243908,0.9762843366296782,1
0.05748991368599499,0.03278388361947793,1
0.6214630060166308,0.9575540668345804,1
0.5618697490446116,0.3621603617137321,1
0.7697038453004272,0.00564247944388907,1
0.3916729622028635,0.3474076517649768,1
0.3840774499495635,0.5989856031414593,1
0.8078893922083806,0.703067564885996,1
0.2052373318991778,0.024052770673750223,1
0.2620861819541822,0.6151160839162972,1
0.6255611899160213,0.912265142415505,1
0.7078266137410901,0.2564576673996105,1
0.4416768367009125,0.6059877235110369,1
0.9864118242853598,0.6853285985634309,1
0.8516492607905469,0.8901345629256888,1
0.11542111983793946,0.7241077983481812,1
0.31394234009677646,0.6116468570434257,1
0.5418341792236334,0.6669951236904158,1
0.42345360011155975,0.10785261699589788,1
0.006833496046358856,0.6747177962602717,1
0.5332935568753293,0.9727771398894578,1
0.5280554048635592,0.6696292459883134,1
0.3957835010649856,0.27032557120546197,1
0.9298427810006259,0.760874068137719,1
0.5430407048652421,0.5447981933641296,1
0.35748426529931965,0.5689112171232361,1
0.42179265120056597,0.08171002402091787,1
0.6567848955286908,0.9986487092980708,1
0.04652395379347862,0.18226036932096046,1
0.5513500914485349,0.032067051795335644,1
0.11795072653894134,0.09242547410505586,1
0.6624316023887353,0.8349549725230928,1
0.5349459871504992,0.8567657948155296,1
0.7651415592666497,0.1363193992924715,1
0.6203327674851158,0.7756824045926562,1
0.34885765360351073,0.49032041370736934,1
0.7243258807361527,0.04480997595266578,1
0.7544930300955912,0.12386346104142198,1
0.048566718990009194,0.12814197694371676,1
0.3001053414467886,0.6135473951523719,1
0.15633399430269646,0.052130696982324864,1
0.6543108779021221,0.778301947747827,1
0.46876991179185656,0.04660339645468514,1
0.46947679555810096,0.07145918085053105,1
0.923403372529958,0.7581656455094351,1
0.6379012770751737,0.21182250968614824,1
0.4550845054471986,0.7192496086955432,1
0.05483539033930063,0.14113545920511783,1
0.8098516841624105,0.12115270175214266,1
0.33824578154690244,0.15899067657347077,1
0.8453223510482023,0.08598133414960685,1
0.8039582238671956,0.848101534974791,1
0.45225531425338383,0.06217122538460362,1
0.9405888232934406,0.5614988138771726,1
0.8484369459133734,0.8067078109066994,1
0.006784492975163481,0.22471029523272468,1
0.823625200664143,0.756213698620792,1
0.24156206834875016,0.6362682908228675,1
0.18027669912663014,0.1009219662956169,1
0.06066112789296807,0.808515937757934,1
0.00042456390010536804,0.23124019399794538,1
0.7973762930204349,0.1808147735104335,1
0.8544113331011074,0.855002805639098,1
0.5750343445521152,0.6327005508499828,1
0.7145753332293967,0.9355702900364018,1
0.2900271471745173,0.1497668167530386,1
0.43560039727804833,0.6491453913010589,1
0.8021749164903172,0.9209405355232785,1
0.34277981268607327,0.08448588166459559,1
0.014121610458873723,0.4213621164216408,1
0.6450742506198992,0.6135371250327061,1
0.5589960301328318,0.5248798876226896,1
0.7735398050505388,0.8612173840745455,1
0.32828536727913193,0.12436710841119414,1
0.9977868670530592,0.5318358614482681,1
0.8905949695970485,0.8103800304912181,1
0.2535389223468082,0.689938390023696,1
0.5495196238407049,0.9490476954223509,1
0.991704402292066,0.6799121240063196,1
0.545449749547084,0.95384736903373,1
0.7275149703221923,0.9662552672922288,1
0.5807312456427498,0.4800832660105281,1
0.8345401114680728,0.12485743367348356,1
0.471196288030577,0.6607057831480615,1
0.6927074354297591,0.3240564588662498,1
0.6401111852467763,0.12017822920656995,1
0.45891651740653894,0.6283014982959695,1
0.020633955086380662,0.8298719721923749,1
0.33497542398323366,0.07090986017522305,1
0.9967142875444627,0.6294684018361494,1
0.14484725372062246,0.09961593786522549,1
0.6850805554882032,0.9706228602038643,1
0.9761663845016797,0.5409741827464686,1
0.18225913197835553,0.753889228797995,1
0.5631197529323768,0.18672722139147435,1
0.4489453247778291,0.6637022533872624,1
0.18542711212135787,0.019801172246927123,1
0.631623921338262,0.3234609740523764,1
0.2989681324227367,0.62521567451542,1
0.01693820778437416,0.33005232957257213,1
0.30434686283407963,0.14176835482142303,1
0.6044059122214117,0.9085587165878956,1
0.788502348606399,0.7835435483769991,1
0.8886243048637961,0.7227859305875073,1
0.6474865072431305,0.10633883855892856,1
0.7217402733072471,0.008159407116688389,1
0.04423230591534777,0.02478791263071145,1
0.5241873173600738,0.7466164562559519,1
0.08947925849035576,0.06648319968858751,1
0.805116297123202,0.8840977790769257,1
0.6600723740011198,0.0817377929033517,1
0.9956914120017363,0.5994929728191049,1
0.33644626193960836,0.222425361529078,1
0.5101253388970475,0.6961935374333986,1
0.20791344620952523,0.7717192322413243,1
0.7688534601072888,0.9243292274157517,1
0.7753489811807108,0.1199512123414983,1
0.8696093018450594,0.7576190882492867,1
0.5654353390071137,0.5774516018364005,1
0.6990359795411322,0.8312788539352528,1
0.44727131807056886,0.1943310254275421,1
0.08822291970476481,0.7570594733729791,1
0.2575819407051275,0.06089264190489352,1
0.6530499219039708,0.9584071002747193,1
0.5877423661738985,0.277524514186675,1
0.3782389424290312,0.5468578985761997,1
0.04413158122298688,0.03196822907853669,1
0.9283034181241893,0.7076071107404805,1
0.592797888150888,0.05984613104290826,1
0.26534623125031764,0.6579654339990381,1
0.3911796393606056,0.13108364503345749,1
0.6118594753572758,0.2266998213770215,1
0.6435821656825976,0.018863122270974864,1
0.029374861774451144,0.05771242264458365,1
0.6539284557556716,0.6984621223034759,1
0.2999735168498301,0.0564671840644283,1
0.6929795783625228,0.9797450390660927,1
0.5733303607855532,0.4265388398888529,1
0.5764477587013076,0.8702521077137001,1
0.6812748492405932,0.09832800352033633,1
0.08967448230262975,0.16241392041112823,1
0.7378327131664688,0.9635041292324856,1
0.5604737984693063,0.7627246837694511,1
0.9995355086172057,0.6786652703456025,1
0.49258022034771387,0.19623021636145055,1
0.21688659063521276,0.018566099850287787,1
0.5685560161133081,0.032299972743147776,1
0.961844608863864,0.5018483941135867,1
0.7578181745008605,0.08921117940162393,1
0.9844642747970173,0.7839051373073954,1
0.5310475631754769,0.8820611075082561,1
0.29526069143897393,0.015861715279109845,1
0.12934473418517767,0.08113182132651475,1
0.5079139305044195,0.25537297870300146,1
0.00866430796799822,0.05171505689001932,1
0.40686597422505044,0.1432186120719141,1
0.21827600114798118,0.07144355707088224,1
0.610833402650134,0.9637229978882895,1
0.46131163436287637,0.27631037230889877,1
0.8351421144449831,0.058220392825443,1
0.5766298088630772,0.3883264827837579,1
0.5508293211381269,0.8867390866462523,1
0.18339007873504343,0.7829344691428984,1
0.25745267024257756,0.10872251861269544,1
0.0009964908212208856,0.1393060020300786,1
0.6162987792625736,0.6036492662698496,1
0.5704141111646862,0.7732942905848174,1
0.05793347663887205,0.03338146891432203,1
0.8657212994430319,0.6471366397602352,1
0.6842238663908005,0.8147494440776493,1
0.020056347525837626,0.13101633317603067,1
0.07121076648667579,0.045871386314680684,1
0.4395619362451494,0.07052804067796326,1
0.49046190556199765,0.28925058603979936,1
0.6092786999259122,0.04126314472453496,1
0.7148855334044226,0.9524333449732534,1
0.31297292956425204,0.17417976180410888,1
0.1405319125055765,0.034954915666131625,1
0.07626249638661897,0.7431500567958058,1
0.354941003797855,0.08638479465761062,1
0.41470336617713777,0.11410772780112632,1
0.30179081374209404,0.5586839420019796,1
0.38174714905540186,0.49809116115367613,1
0.5488918005341636,0.1859292050896585,1
0.8970570018180453,0.6736677861955419,1
0.671154220465577,0.608646711456616,1
0.5016573745787916,0.005965881121100525,1
0.251088426242861,0.6482674062601324,1
0.6788167957791774,0.9766143319508934,1
0.2967196168052799,0.600804736103378,1
0.007794480299929463,0.34616510594931493,1
0.6160690380408967,0.21912146449636405,1
0.7407162824203712,0.9652511815699322,1
0.5226003146821726,0.8218509663597179,1
0.6072594603075213,0.05920258885022189,1
0.3347904027422539,0.07378750656030475,1
0.7206055816004437,0.05439140315503488,1
0.4512234249678153,0.0108559676864447,1
0.6283603902766758,0.6918729600608242,1
0.803518939599201,0.11688344873319478,1
0.504254560839504,0.9165184120591231,1
0.2271886944224486,0.7151338830930287,1
0.4896943893711211,0.8165191579004979,1
0.16726832012681314,0.053172706393317726,1
0.5638225299587396,0.8421968978289771,1
0.9201246392683952,0.7412157026591433,1
0.5504647986598428,0.8133592769625044,1
0.43791534908351326,0.6595602311049032,1
0.374067426630747,0.3053032213209532,1
0.6705373218862897,0.15588240637548612,1
0.519098490694301,0.14757364798252337,1
0.38250071116468065,0.06065143616594515,1
0.5007804998868581,0.07673353719787501,1
0.5946111327251881,0.09047179616598322,1
0.49740801839699167,0.6628565073116889,1
0.6768729195400998,0.08062400336165154,1
0.5718359893888918,0.6713371114026543,1
0.4650320936025407,0.17750369544025868,1
0.7873522281828237,0.8503718129797833,1
0.9438277040466707,0.5775545827369695,1
0.6484790096810201,0.90940556177943,1
0.6568657274556499,0.2239675336184339,1
0.3061618822673524,0.5976748066535325,1
0.4751313311547053,0.7835400482820226,1
0.045878267664339334,0.13498859158150966,1
0.5521993191442875,0.226151519721977,1
0.06899256978647483,0.7064868924288008,1
0.7686914106451894,0.9668358788575822,1
0.07510485931185262,0.10955498178543566,1
0.2884362907614848,0.005640122460524366,1
0.5942319084136861,0.21979290402005314,1
0.8122026971381361,0.7489506781277128,1
0.5501850805142322,0.004602168185324662,1
0.6404406283675791,0.943927488835811,1
0.676256431882568,0.1501734659331293,1
0.01738345649590889,0.824643943407974,1
0.7877658843446289,0.9739788945361475,1
0.6294914428397042,0.74793248149103,1
0.44632464703491426,0.17381456448077148,1
0.6947131585856311,0.09989594586467687,1
0.525981228777151,0.30269709363374286,1
0.6961973103055509,0.2540650423561097,1
0.967386091547858,0.6654883435534794,1
0.8401290201086412,0.732984361619125,1
0.622466496298362,0.3396451725780022,1
0.5922154025924553,0.4802330616399103,1
0.054393227210859485,0.02395791731758301,1
0.6113639249920219,0.4830664397211385,1
0.3101611094829785,0.5730120029207283,1
0.23018394058690228,0.6977546489749229,1
0.5557186133233243,0.6058079573556937,1
0.3484660703225171,0.5420655007222026,1
0.5957443945015578,0.1515002761882448,1
0.7289176307565669,0.010538165005875788,1
0.32986699971661104,0.15151094449401237,1
0.38769573624249853,0.11987840620520573,1
0.2997143500832862,0.0034337566561944977,1
0.44795395653677805,0.20111960634349424,1
0.7080019364643176,0.9587216204706971,1
0.5956511659113372,0.2098048305951703,1
0.13871388217375002,0.7052937463496174,1
0.7190659624677344,0.9056467837026013,1
0.4339194223674786,0.13054039887578028,1
0.08720248884294302,0.03340427344242913,1
0.08590653583669094,0.0821816614249542,1
0.3512818228288913,0.08854196977243789,1
0.49454531983523287,0.17090943406358783,1
0.5616537605593958,0.992010727895999,1
0.6339582543152318,0.9958129667200926,1
0.22207143885925218,0.7295097358179125,1
0.6482835369570565,0.3178175102666383,1
0.09031860132042957,0.19592496391540404,1
0.5599301065187864,0.6210756643956468,1
0.6445833863850237,0.18146827727369041,1
0.5217872702117583,0.7758087580117724,1
0.2950245190599535,0.5933973399663874,1
0.5034352352328592,0.7051098856919983,1
0.3750764795406013,0.3844020305953363,1
0.687245172412116,0.8254269049015319,1
0.8429332917982025,0.9067846253454684,1
0.6982350878054665,0.1932682830652689,1
0.3968434637755829,0.0737432888197056,1
0.5236639292858489,0.9598200482614996,1
0.7684703657774224,0.9779595196581186,1
0.06270047813458712,0.7837434488462036,1
0.5452261571010786,0.6544424885314194,1
0.609847894292116,0.7767834766312843,1
0.35176634143257857,0.2925970840172162,1
0.47193973047640514,0.8147876786356338,1
0.6847896107251482,0.6244947032430809,1
0.3186456840739156,0.2314415472714686,1
0.5918648462294125,0.20189590615237052,1
0.056267105289053876,0.12947951431168203,1
0.03755846994159451,0.6378613699936425,1
0.7258381121060257,0.8566361378206784,1
0.7617916419444344,0.037882033177117025,1
0.8028690880159668,0.7976140980387435,1
0.8199602827856068,0.8743464970879149,1
0.7012790756080504,0.7822214261158525,1
0.00967019814550718,0.6931403774653443,1
0.5199075265172018,0.011455326210751404,1
0.361083145281084,0.5402598176382408,1
0.9476104934955942,0.715897862150901,1
0.7877992787673388,0.7966540083957244,1
0.03532177193612773,0.7375436454275756,1
0.37619107545350206,0.2969961943006786,1
0.6739770529475874,0.3806182293285898,1
0.5991383770180985,0.07078947999916052,1
0.027774572218811744,0.30500522824271115,1
0.5690434117935793,0.0020991356378100567,1
0.7133242901709069,0.21307061142219286,1
0.9325268436832257,0.781356656855632,1
0.6665406866184982,0.6690058011347538,1
0.5442842134269635,0.20313121720522442,1
0.8160029503172572,0.8518629466876966,1
0.6200583934081793,0.8953656954086745,1
0.6890313826864156,0.8312903610199457,1
0.5982142995657798,0.01872049078644289,1
0.014733988108208251,0.5894479289984595,1
0.5105149908045455,0.7544879912076188,1
0.21546569962224127,0.062036444229010335,1
0.47106912945414003,0.5836299605863059,1
0.8840774573320733,0.6530595331633517,1
0.41848945739547205,0.19902273216772948,1
0.014688979423700843,0.17117632896724788,1
0.6794688033244256,0.3281955124503073,1
0.40629417865551143,0.09851908874147353,1
0.5410425810907398,0.711862257840549,1
0.7000033478221178,0.18004903723091992,1
0.15310190541506763,0.7503918128356126,1
0.5516028488488285,0.3307630405113343,1
0.36277582311640555,0.33812764402867124,1
0.5944038956833403,0.2968495930518562,1
0.052824349498388656,0.6071909632189637,1
0.3032095027556905,0.5301032056890954,1
0.7981044570152808,0.06202967884294708,1
0.6246905304158529,0.5759091118799547,1
0.2747681340048084,0.5869947305534151,1
0.6590399108564028,0.9297706806355613,1
0.9590969519129295,0.7117911158644191,1
0.290408148006129,0.04675434180318505,1
0.47181147567280735,0.6146151159488675,1
0.2934067682769441,0.08428126835416949,1
0.8046418902693705,0.7614754366154652,1
0.5797119838729368,0.29299192079210634,1
0.5606895389502828,0.9442880776700808,1
0.7264824444478853,0.7819357524295697,1
0.6776231166957948,0.5949389065413097,1
0.7637090694538623,0.733490132959202,1
0.6017147907795601,0.7998257195012927,1
0.6969457667815198,0.8111651745605787,1
0.22647785284509536,0.01836578952154866,1
0.33568841651122505,0.6553911518198047,1
0.32483899970441044,0.5196646338491846,1
0.9293610661301914,0.5854343172776161,1
0.8339323294723532,0.7822327130658341,1
0.4842224743696235,0.7370887169257148,1
0.5426519681138449,0.7234742642449331,1
0.4907392529840857,0.8975694488016935,1
0.27745481091590485,0.06898422154923278,1
0.31530082247387714,0.07014153343463803,1
0.030480537366458726,0.729658724739004,1
0.7743688755825703,0.9495379928790687,1
0.3598666614161681,0.16669479268083154,1
0.9746049301380529,0.4525963932875747,1
0.0007559996027910465,0.5911582837511087,1
0.2678270606671067,0.06847442872278764,1
0.921593590791492,0.7574003898126443,1
0.5635139543349075,0.477769929005432,1
0.13263313056946435,0.12530597658098053,1
0.018673754035324674,0.812388530962611,1
0.8381824430788596,0.7203460848220986,1
0.8053726737133995,0.9444346311196685,1
0.467081669636921,0.0789917713413798,1
0.6953605054445365,0.7511144313495128,1
0.43438144849587057,0.635257634893453,1
0.7928855763736333,0.09266628605696114,1
0.7632742870791615,0.03093508952939028,1
0.6435282845541501,0.21051492787253512,1
0.5668150213005033,0.012552417040160191,1
0.6572652949125259,0.16316271968750928,1
0.5844635212791522,0.5904537690881999,1
0.8216512180138559,0.1647334180045099,1
0.4997865766373367,0.13612227525086584,1
0.992582550102892,0.6006594584218004,1
0.2540293133798265,0.1198574878170694,1
0.526551248177056,0.09248912866423653,1
0.7103035502888682,0.24714485467056901,1
0.5454515971548027,0.09331534598926783,1
0.5133387717889736,0.7109951576845774,1
0.6711572454900585,0.32346553079715745,1
0.6733701210424721,0.8147931997168439,1
0.6343967064425027,0.8566764631774049,1
0.5276247436157245,0.07168033023890741,1
0.43177858565261695,0.26115272397559974,1
0.78485234708187,0.7360412660810246,1
0.5866450731461816,0.4870831621378616,1
0.7954786628056469,0.1488720800271386,1
0.32121404829273204,0.17463395685767868,1
0.14798067809100168,0.01691652574897906,1
0.7788950969297939,0.7851373093302335,1
0.9310820679235254,0.7645551075811765,1
0.852824636791472,0.7635555687059388,1
0.04266495516174462,0.6318484587818222,1
0.4518000899271174,0.5583928010442205,1
0.12715660466901146,0.042938458151418946,1
0.9461675475848605,0.495219011050373,1
0.6058174919380422,0.9119251557291789,1
0.34363723465555984,0.4959322860125739,1
0.004663522670693809,0.522330908881479,1
0.7262858553955165,0.8348370158294882,1
0.7433280009835037,0.9627682983247737,1
0.6101260726188588,0.2530636582619117,1
0.36799208611352296,0.08118690591970679,1
0.47723919715416296,0.11957404820914375,1
0.6833120323462619,0.7869595533023257,1
0.920427775037065,0.6896289658315132,1
0.7164977100894563,0.6696283871231268,1
0.6402346053448057,0.9406259274369252,1
0.7839701204374335,0.7532069271704347,1
0.9851866475675595,0.7219536672065645,1
0.44976967655938604,0.6989910650627063,1
0.8094826345635526,0.8580763036945547,1
0.3904651814278911,0.3421808195325755,1
0.039793607689808996,0.07947918671090237,1
0.5224432933462757,0.07408761383539175,1
0.8748938930525605,0.0011866110735733182,1
0.6544877016529175,0.694014626663054,1
0.7033755569208915,0.26769424298037336,1
0.9215792638305481,0.5649531163228845,1
0.5439545640617893,0.6956425640075509,1
0.9217280599075212,0.7799866304058638,1
0.9309751561240809,0.5578986382491535,1
0.4769472823267874,0.6887520429364865,1
0.6886060553858192,0.1788196353017507,1
0.7966420123228423,0.8427494751687039,1
0.2953436704381349,0.6278775625248215,1
0.5794536903299062,0.540206144176499,1
0.6133005392229264,0.0028964927350184633,1
0.49961097444441294,0.9517962320850161,1
0.08174033545159498,0.21911692201363842,1
0.06582229605622936,0.7357062313745858,1
0.2672208907014927,0.0521715919084047,1
0.24502940336284496,0.09193348463338502,1
0.7056383488125122,0.6594455698189434,1
0.7747769116036413,0.15104948187110667,1
0.5373844419580769,0.7489758413635695,1
0.16804526002753994,0.7163089159582275,1
0.6678272706568306,0.3034204676634402,1
0.5202358488876675,0.8430955581888752,1
0.9076298692200612,0.6019696462665322,1
0.354411802168213,0.26481040319675087,1
0.389169527949898,0.48088617225520336,1
0.6596123460536729,0.988853342096297,1
0.8252997507826074,0.6865729971512801,1
0.3087530851711159,0.04949252870642851,1
0.415879618202855,0.2204568029175933,1
0.5419050633219115,0.8104188705277611,1
0.6224346473451727,0.48912370668872396,1
0.8280439174952617,0.16289090501962533,1
0.2870844389450844,0.17113241704438253,1
0.39113623183236157,0.22278576125215732,1
0.48429695167671016,0.1620864462203062,1
0.21647035363290168,0.033191987376164245,1
0.3612133291451878,0.18723799506203376,1
0.5553742677645865,0.8611896755360053,1
0.35125599022372966,0.24832725357328267,1
0.3532524337325499,0.21286169598334503,1
0.6404928194657232,0.8847312545989624,1
0.23641613232795367,0.6770976345497627,1
0.4596831307012277,0.18874088276620182,1
0.3596764015550895,0.6566644617742801,1
0.5805870436156001,0.6402097336393922,1
0.7699746846537183,0.11867324122183709,1
0.06948853909458819,0.7610830778411136,1
0.2891723982664378,0.013551305371153788,1
0.7271917437648929,0.012603013595106738,1
0.4887577618396238,0.06162711246731756,1
0.8967036215607531,0.6938701361825235,1
0.23934201995348126,0.0073317147584439635,1
0.3283187041262524,0.705824322052692,1
0.11634478367345458,0.6879685711178514,1
0.5357394435431487,0.0045706662642364115,1
0.3351625300779939,0.17049341775538274,1
0.5236016899306648,0.810050540877874,1
0.6614052307795738,0.78914697926803,1
0.5650112590906179,0.3334255177833292,1
0.1004621824335169,0.15893144363501577,1
0.46584330947942976,0.1872432147082529,1
0.6719616784230505,0.23402194129701015,1
0.6639179755912413,0.9961442718659363,1
0.43834633615007745,0.6390551183518344,1
0.23032163408654682,0.7566114222174416,1
0.11308953862016202,0.06936535775381214,1
0.6887700668826298,0.8020870228516925,1
0.34618084130341387,0.7208246150158614,1
0.6279347110893823,0.04027528770495503,1
0.3831993670010432,0.33665335549117315,1
0.5517252440115291,0.3604388527653386,1
0.3573399892091119,0.25197795923427224,1
0.04070908506559223,0.6119569037696585,1
0.4085891213509598,0.10374202198227545,1
0.5414150947983363,0.1978836008771374,1
0.7944211465080332,0.017746029997771418,1
0.054947807565380424,0.03210843763984783,1
0.8629136950842364,0.011552982467660788,1
0.5176224010856378,0.26960718843844644,1
0.586417648227402,0.6237415070926381,1
0.328725972818403,0.5481792782433071,1
0.029383157390487802,0.768461319278217,1
0.5544872409665584,0.12763811662504243,1
0.5186778771642151,0.6902624816727843,1
0.23258132082379623,0.05750488608487381,1
0.6278299176931377,0.9200941291738788,1
0.6297575347140896,0.3445150210246899,1
0.7227462324955646,0.058246384626477465,1
0.8105807578908215,0.16831850371616464,1
0.8068213508763432,0.732472469271444,1
0.635138773306503,0.268838912292628,1
0.10344357244193092,0.05929570665028361,1
0.917983133578739,0.792753873401376,1
0.6627491500112876,0.8006392682744,1
0.6587028213954821,0.7138166395773279,1
0.22372095921308088,0.05301463021651254,1
0.7951749566800532,0.058141616074990465,1
0.8402143731515147,0.8556017786726109,1
0.5120045509385643,0.6204431199653486,1
0.44396545093918305,0.02555545072149712,1
0.6290182278419789,0.3980344316547886,1
0.670512897939004,0.7565601876421363,1
0.8090660459430029,0.857531651927647,1
0.7560815245103942,0.10695922226893262,1
0.5864453940795046,0.1978396580419921,1
0.16416451590198122,0.030354645508983036,1
0.018420415010782287,0.08491860388200767,1
0.8203617578861876,0.050192474723097735,1
0.5370759235129936,0.29364985831705637,1
0.6719624549346322,0.26701072751024324,1
0.4720359577999925,0.14198381247066516,1
0.0828736768949554,0.7724277388263235,1
0.7208863862853941,0.7252720298165349,1
0.20001855892843545,0.7463258792402006,1
0.45303609894817654,0.04604500257293276,1
0.7790583847741853,0.10148888011851975,1
0.625477665427359,0.8120226348470053,1
0.9465630154060645,0.6449954869628534,1
0.2429974116194249,0.6334081275449668,1
0.6815166732201813,0.7028878727900676,1
0.6340215567109704,0.6116538034160446,1
0.3525995938155393,0.6380619049162326,1
0.46055217386212166,0.09836900775370405,1
0.4943548247341797,0.216659725545984,1
0.3466315952691934,0.27199432073646324,1
0.020303147703858215,0.7232154288822138,1
0.7022291143076411,0.7921303614574369,1
0.17340018330682505,0.07905102392591745,1
0.56449469069728,0.028498672332940678,1
0.9753193779766264,0.5905452317885855,1
0.8251819865456624,0.9198933699467643,1
0.7186745969957956,0.790552859430787,1
0.6526433636954277,0.3149864258049162,1
0.485317808564267,0.1672776798775748,1
0.7760616491809863,0.9178458621646797,1
0.6591516420740903,0.17591758250596434,1
0.7701590031102667,0.9871853390672761,1
0.5002977211716354,0.7896673781073786,1
0.5912325149717259,0.03129239642105408,1
0.4938056118193681,0.7975273697756495,1
0.4906415179149939,0.004394787723983162,1
0.7216910009698586,0.837755611324896,1
0.3398380283244682,0.7333658483890694,1
0.6278681165206794,0.6494237758759132,1
0.9225500026262976,0.6398759059651387,1
0.3594517617612367,0.22570746298858824,1
0.9716316044198435,0.5710540508812103,1
0.8496735448800748,0.07916467863714649,1
0.516675185264129,0.1030807747043212,1
0.8285328457980579,0.8011042882522712,1
0.7877375091753188,0.9936407484785279,1
0.2252277105890762,0.7209100918303812,1
0.5115770471181158,0.9123216238459886,1
0.8447690683421831,0.7928589350607185,1
0.7716557154240087,0.11424759494780978,1
0.028493140887178248,0.3541198191879765,1
0.6463748144136923,0.5662763423882515,1
0.5630751075047519,0.9259704308875973,1
0.38880288428205934,0.19765668337717746,1
0.9696506780991341,0.49433634506615054,1
0.6174395118850858,0.2024531690805984,1
0.45855070859904257,0.13114601105682355,1
0.41769458752158284,0.3053937962922435,1
0.5958126059429388,0.27961073272900716,1
0.6590606937104204,0.9881632864045208,1
0.23776207247039438,0.7257578391776205,1
0.6223152526789563,0.2712987151497833,1
0.5424154598059999,0.2916617444587305,1
0.29620877352583064,0.011897524431778383,1
0.5257332254593224,0.8647235668691909,1
0.7405916615837373,0.787528284847941,1
% 
% 
% 
